100
324 621 9 983 823 1000 264 200 55 194 25 692 366 816 761 350 167 348 31 649 190 149 889 438 947 981 664 250 148 247 737 512 298 18 352 393 70 250 296 416 494 566 850 295 95 304 217 576 477 322 95 752 624 624 703 855 36 189 472 701 505 506 308 244 874 983 500 468 129 602 212 626 279 468 866 312 535 319 486 868 493 965 408 455 645 502 672 291 14 423 65 249 598 691 910 679 556 345 477 289 
624 821 209 1183 1023 1200 564 400 255 394 225 892 666 1116 961 550 367 648 231 849 390 349 1089 738 1147 1181 864 450 348 447 937 712 498 318 552 593 270 450 496 616 694 766 1050 495 295 504 417 876 677 522 295 952 924 924 903 1055 336 389 672 901 705 706 508 444 1074 1183 700 768 329 802 412 826 479 768 1066 612 735 519 786 1068 693 1165 708 655 845 702 972 491 214 623 265 449 798 891 1110 879 756 545 677 489 
22764
